12 40 6 10
1 1 16 4 3 4 13 20 20 1 10 9 3 8 7 2 18 19 7 15 16 14 10 7 12 14 7 18 10 9 3 18 9 10 15 16 1 16 8 1 
4.35 5.8 3.45 5.49 4.99 4.68 3.54 3.27 0.43 1.59 1.7 5.62 1.28 3.02 4.46 1.28 2.57 6.1 2.64 6.13 5.69 1.93 2.53 7.28 6.73 6.61 6.72 3.24 6.74 4.08 5.28 5.12 3.35 2.88 7.64 7.08 2.7 4.7 2.45 2.41 
5.61 1.56 5.47 5.78 2.77 7.85 1.24 2.03 2.58 7.13 6.06 1.63 1.65 5.7 0.74 6.9 0.11 0.55 1.43 5.36 0.94 6.49 5.28 6.61 2.57 6.07 1.39 2.45 2.41 2.75 2.24 1.73 5.56 6.18 2.72 4 3.69 0.63 7.54 2.05 
7.5 0.93 0.62 0.81 4.95 0.11 4.22 4.49 2.85 2.66 1.73 2.64 5.21 4.06 0.48 6.69 4.46 7.38 3.96 3.95 7.33 5.78 1.48 7.8 0.47 3.23 0.66 1.12 0.39 2.43 4.3 7.94 1.35 1.14 1.15 6.64 7.2 4.02 3.85 3.41 
2.51 3.21 1.47 5.17 7.79 3.65 4.5 4.9 4.33 2.9 0.65 6.65 6.06 6.59 5.43 3.84 6.72 1.7 1.97 2.74 7.3 3.58 0.61 0.17 4.57 2.16 1.75 7.91 6.01 0.47 5 4.53 0.23 4.18 0.07 6.6 6 5.33 0.44 1.4 
2.24 5.98 1.24 1.12 3.8 3.6 4.56 0.43 7.42 2.66 7.82 3.29 6.44 1.11 7.1 5.91 0.18 1.34 4.53 0.57 3.22 0.17 1.13 5.44 7.08 2.32 6.05 2.87 2.34 6.34 0.11 4.46 5.36 3.52 7.84 2.1 5 7.04 4.39 1.62 
7.12 0.65 0.31 4.62 4.09 0.08 5.66 2.57 5.11 5.46 1.37 5.53 6.09 4.89 1.23 1.96 7.75 1.73 1.71 7.88 5.1 5 1.03 2.35 2.82 2.24 6.24 3.47 4.68 3.97 4.71 5.25 3.06 3.35 6.38 5.8 0.45 1.27 4.88 7.8 
4 4 4 4 4 4 4 4 4 4 4 4 4 4 4 4 4 4 4 4 4 4 4 4 4 4 4 4 4 4 4 4 4 4 4 4 4 4 4 4 
6.26 0.46 5.86 7.16 2.38 0.41 5 6.89 3.04 6.26 3.79 7.32 6.82 2.37 1.96 3.73 3.38 2.33 3.6 6.63 2.06 5.79 1.04 6.53 7.14 6.41 7.73 4.2 5.16 6.12 5.99 7.06 2.72 3.29 2.24 0.17 4.24 6.94 7.71 6.23 
0.68 4.49 7.23 1.11 7.25 7.45 1.89 0.52 2.54 0.38 5.51 0.53 2.84 3.57 0.06 4.54 1.84 3.61 5.43 5.3 2.53 2.87 2.3 7.05 4.91 6.79 4.06 1.23 6.9 4.7 6.36 4.22 4.14 1.96 7.08 1.61 7.47 7.86 2.56 0.43 
6.74 2.61 5.68 3.4 5.44 1.61 0.61 0.48 3.25 5.66 1.34 0.54 4.54 5.29 0.99 5.33 7.76 6.95 2.17 4.67 6.96 7.09 7.53 0.12 4.76 7.64 2.65 0.06 2.51 1.35 3.15 7.16 2.81 3.82 2.48 0.12 5.69 0.45 3.86 6.75 
6.85 5.49 1.65 1.41 2.95 2.09 5.79 2.07 4.55 2.76 3.83 5.09 7.71 3.28 5.59 4.6 6.5 5.14 0.17 3.66 4.84 6.02 4.43 1.06 3.77 5.58 2.64 6.91 1.65 2.96 6.82 3.77 6.72 6.85 2.61 7.61 7.01 0.71 3.5 5.13 
2.7 0.05 4.56 7.83 7.89 4.17 6.85 5.05 6.17 3.74 7.09 5.58 3.46 6.03 4.3 0.99 6.9 6.03 7.28 4.68 1.92 3.69 3.52 4.83 0.94 3.42 4.97 4.92 4.94 1.05 6.12 1.61 4.42 6.19 6.64 1.45 5.51 7.46 3.74 5.18 
1 1 1 1 1 1 1 1 1 1 1 1 1 1 1 1 1 1 1 1 1 1 1 1 1 1 1 1 1 1 1 1 1 1 1 1 1 1 1 1 
1 1 1 1 1 1 1 1 1 1 1 1 1 1 1 1 1 1 1 1 1 1 1 1 1 1 1 1 1 1 1 1 1 1 1 1 1 1 1 1 
1 1 1 1 1 1 1 1 1 1 1 1 1 1 1 1 1 1 1 1 1 1 1 1 1 1 1 1 1 1 1 1 1 1 1 1 1 1 1 1 
1 1 1 1 1 1 1 1 1 1 1 1 1 1 1 1 1 1 1 1 1 1 1 1 1 1 1 1 1 1 1 1 1 1 1 1 1 1 1 1 
1 1 1 1 1 1 1 1 1 1 1 1 1 1 1 1 1 1 1 1 1 1 1 1 1 1 1 1 1 1 1 1 1 1 1 1 1 1 1 1 
1 1 1 1 1 1 1 1 1 1 1 1 1 1 1 1 1 1 1 1 1 1 1 1 1 1 1 1 1 1 1 1 1 1 1 1 1 1 1 1 
1 1 1 1 1 1 1 1 1 1 1 1 1 1 1 1 1 1 1 1 1 1 1 1 1 1 1 1 1 1 1 1 1 1 1 1 1 1 1 1 
1 1 1 1 1 1 1 1 1 1 1 1 1 1 1 1 1 1 1 1 1 1 1 1 1 1 1 1 1 1 1 1 1 1 1 1 1 1 1 1 
1 1 1 1 1 1 1 1 1 1 1 1 1 1 1 1 1 1 1 1 1 1 1 1 1 1 1 1 1 1 1 1 1 1 1 1 1 1 1 1 
1 1 1 1 1 1 1 1 1 1 1 1 1 1 1 1 1 1 1 1 1 1 1 1 1 1 1 1 1 1 1 1 1 1 1 1 1 1 1 1 
1 1 1 1 1 1 1 1 1 1 1 1 1 1 1 1 1 1 1 1 1 1 1 1 1 1 1 1 1 1 1 1 1 1 1 1 1 1 1 1 
1 1 1 1 1 1 1 1 1 1 1 1 1 1 1 1 1 1 1 1 1 1 1 1 1 1 1 1 1 1 1 1 1 1 1 1 1 1 1 1 
0.01 0.01 0.01 0.01 0.01 0.01 0.01 0.01 0.01 0.01 0.01 0.01 0.01 0.01 0.01 0.01 0.01 0.01 0.01 0.01 0.01 0.01 0.01 0.01 0.01 0.01 0.01 0.01 0.01 0.01 0.01 0.01 0.01 0.01 0.01 0.01 0.01 0.01 0.01 0.01 
0.02 0.02 0.02 0.02 0.02 0.02 0.02 0.02 0.02 0.02 0.02 0.02 0.02 0.02 0.02 0.02 0.02 0.02 0.02 0.02 0.02 0.02 0.02 0.02 0.02 0.02 0.02 0.02 0.02 0.02 0.02 0.02 0.02 0.02 0.02 0.02 0.02 0.02 0.02 0.02 
0.03 0.03 0.03 0.03 0.03 0.03 0.03 0.03 0.03 0.03 0.03 0.03 0.03 0.03 0.03 0.03 0.03 0.03 0.03 0.03 0.03 0.03 0.03 0.03 0.03 0.03 0.03 0.03 0.03 0.03 0.03 0.03 0.03 0.03 0.03 0.03 0.03 0.03 0.03 0.03 
0.04 0.04 0.04 0.04 0.04 0.04 0.04 0.04 0.04 0.04 0.04 0.04 0.04 0.04 0.04 0.04 0.04 0.04 0.04 0.04 0.04 0.04 0.04 0.04 0.04 0.04 0.04 0.04 0.04 0.04 0.04 0.04 0.04 0.04 0.04 0.04 0.04 0.04 0.04 0.04 
0.05 0.05 0.05 0.05 0.05 0.05 0.05 0.05 0.05 0.05 0.05 0.05 0.05 0.05 0.05 0.05 0.05 0.05 0.05 0.05 0.05 0.05 0.05 0.05 0.05 0.05 0.05 0.05 0.05 0.05 0.05 0.05 0.05 0.05 0.05 0.05 0.05 0.05 0.05 0.05 
0.06 0.06 0.06 0.06 0.06 0.06 0.06 0.06 0.06 0.06 0.06 0.06 0.06 0.06 0.06 0.06 0.06 0.06 0.06 0.06 0.06 0.06 0.06 0.06 0.06 0.06 0.06 0.06 0.06 0.06 0.06 0.06 0.06 0.06 0.06 0.06 0.06 0.06 0.06 0.06 
0.07 0.07 0.07 0.07 0.07 0.07 0.07 0.07 0.07 0.07 0.07 0.07 0.07 0.07 0.07 0.07 0.07 0.07 0.07 0.07 0.07 0.07 0.07 0.07 0.07 0.07 0.07 0.07 0.07 0.07 0.07 0.07 0.07 0.07 0.07 0.07 0.07 0.07 0.07 0.07 
0.2 0.2 0.2 0.2 0.2 0.2 0.2 0.2 0.2 0.2 0.2 0.2 0.2 0.2 0.2 0.2 0.2 0.2 0.2 0.2 0.2 0.2 0.2 0.2 0.2 0.2 0.2 0.2 0.2 0.2 0.2 0.2 0.2 0.2 0.2 0.2 0.2 0.2 0.2 0.2 
0.4 0.4 0.4 0.4 0.4 0.4 0.4 0.4 0.4 0.4 0.4 0.4 0.4 0.4 0.4 0.4 0.4 0.4 0.4 0.4 0.4 0.4 0.4 0.4 0.4 0.4 0.4 0.4 0.4 0.4 0.4 0.4 0.4 0.4 0.4 0.4 0.4 0.4 0.4 0.4 
0.6 0.6 0.6 0.6 0.6 0.6 0.6 0.6 0.6 0.6 0.6 0.6 0.6 0.6 0.6 0.6 0.6 0.6 0.6 0.6 0.6 0.6 0.6 0.6 0.6 0.6 0.6 0.6 0.6 0.6 0.6 0.6 0.6 0.6 0.6 0.6 0.6 0.6 0.6 0.6 
0.8 0.8 0.8 0.8 0.8 0.8 0.8 0.8 0.8 0.8 0.8 0.8 0.8 0.8 0.8 0.8 0.8 0.8 0.8 0.8 0.8 0.8 0.8 0.8 0.8 0.8 0.8 0.8 0.8 0.8 0.8 0.8 0.8 0.8 0.8 0.8 0.8 0.8 0.8 0.8 
1 1 1 1 1 1 1 1 1 1 1 1 1 1 1 1 1 1 1 1 1 1 1 1 1 1 1 1 1 1 1 1 1 1 1 1 1 1 1 1 
